-338.0 4.0 0.0 6.0 3.0 2.0 9.0 3.0 3.0 5.0 2.0 6.0 9.0 4.0 8.0 9.0 4.0 1.0 5.0 3.0 0.0 1.0 3.0 3.0 8.0 7.0 10.0 10.0 9.0 4.0 6.0 0.0 1.0 3.0 8.0 8.0 0.0 4.0 1.0 10.0 5.0 5.0 10.0 0.0 1.0 7.0 2.0 6.0 4.0 7.0 0.0 9.0 7.0 0.0 8.0 10.0 6.0 6.0 8.0 2.0 3.0 5.0 8.0 8.0 4.0 0.0 9.0 2.0 9.0 1.0 4.0 0.0 
4.0 -392.0 5.0 9.0 9.0 3.0 5.0 5.0 4.0 6.0 3.0 10.0 10.0 9.0 8.0 4.0 5.0 5.0 8.0 3.0 7.0 6.0 4.0 7.0 2.0 3.0 5.0 2.0 10.0 5.0 10.0 5.0 2.0 10.0 6.0 4.0 6.0 2.0 1.0 7.0 7.0 9.0 10.0 4.0 9.0 2.0 4.0 4.0 3.0 9.0 9.0 1.0 9.0 9.0 1.0 7.0 1.0 9.0 7.0 2.0 10.0 8.0 9.0 9.0 1.0 4.0 10.0 6.0 0.0 0.0 0.0 0.0 
0.0 5.0 -410.0 7.0 10.0 6.0 6.0 6.0 2.0 5.0 10.0 6.0 5.0 9.0 6.0 10.0 7.0 7.0 10.0 0.0 6.0 0.0 3.0 4.0 0.0 4.0 6.0 9.0 7.0 8.0 8.0 5.0 10.0 7.0 10.0 6.0 10.0 6.0 4.0 7.0 9.0 9.0 0.0 5.0 9.0 4.0 5.0 5.0 7.0 2.0 7.0 10.0 2.0 0.0 10.0 6.0 8.0 9.0 0.0 2.0 9.0 6.0 10.0 5.0 6.0 6.0 3.0 3.0 3.0 0.0 4.0 9.0 
6.0 9.0 7.0 -328.0 0.0 3.0 2.0 7.0 0.0 8.0 1.0 5.0 10.0 4.0 0.0 0.0 2.0 2.0 1.0 7.0 5.0 0.0 6.0 7.0 10.0 1.0 9.0 3.0 4.0 5.0 2.0 7.0 8.0 3.0 5.0 3.0 10.0 7.0 2.0 10.0 9.0 8.0 0.0 4.0 7.0 0.0 9.0 4.0 3.0 5.0 10.0 2.0 5.0 6.0 3.0 1.0 7.0 4.0 5.0 1.0 0.0 1.0 8.0 9.0 10.0 1.0 2.0 6.0 8.0 1.0 1.0 7.0 
3.0 9.0 10.0 0.0 -339.0 0.0 6.0 1.0 0.0 1.0 9.0 3.0 1.0 8.0 1.0 4.0 0.0 3.0 5.0 0.0 4.0 5.0 1.0 9.0 8.0 2.0 1.0 4.0 4.0 8.0 5.0 9.0 8.0 8.0 7.0 3.0 9.0 3.0 0.0 10.0 3.0 8.0 3.0 2.0 0.0 1.0 0.0 2.0 10.0 8.0 2.0 10.0 3.0 8.0 10.0 7.0 8.0 9.0 6.0 10.0 7.0 1.0 8.0 5.0 7.0 7.0 1.0 0.0 4.0 7.0 8.0 2.0 
2.0 3.0 6.0 3.0 0.0 -331.0 7.0 4.0 2.0 0.0 0.0 7.0 7.0 4.0 1.0 4.0 10.0 2.0 5.0 3.0 7.0 8.0 10.0 2.0 0.0 3.0 7.0 6.0 2.0 1.0 4.0 10.0 2.0 7.0 7.0 6.0 4.0 7.0 7.0 5.0 0.0 6.0 2.0 4.0 5.0 9.0 9.0 3.0 1.0 1.0 7.0 3.0 10.0 3.0 8.0 8.0 6.0 7.0 6.0 2.0 5.0 5.0 5.0 8.0 3.0 6.0 1.0 3.0 6.0 3.0 10.0 1.0 
9.0 5.0 6.0 2.0 6.0 7.0 -386.0 5.0 2.0 3.0 9.0 4.0 8.0 9.0 2.0 8.0 9.0 10.0 9.0 2.0 1.0 8.0 5.0 0.0 10.0 7.0 4.0 5.0 4.0 2.0 10.0 9.0 8.0 8.0 7.0 9.0 3.0 9.0 5.0 1.0 3.0 8.0 9.0 8.0 1.0 6.0 3.0 6.0 10.0 7.0 1.0 1.0 2.0 2.0 9.0 10.0 2.0 8.0 3.0 8.0 9.0 2.0 9.0 6.0 0.0 8.0 1.0 2.0 2.0 5.0 3.0 2.0 
3.0 5.0 6.0 7.0 1.0 4.0 5.0 -332.0 0.0 10.0 2.0 9.0 4.0 0.0 1.0 7.0 2.0 1.0 10.0 2.0 6.0 7.0 5.0 7.0 3.0 3.0 1.0 1.0 4.0 1.0 7.0 1.0 7.0 0.0 1.0 6.0 7.0 3.0 10.0 3.0 0.0 8.0 3.0 2.0 2.0 10.0 4.0 1.0 7.0 8.0 9.0 7.0 9.0 6.0 9.0 0.0 3.0 9.0 7.0 3.0 5.0 3.0 6.0 10.0 10.0 7.0 6.0 2.0 5.0 1.0 4.0 4.0 
3.0 4.0 2.0 0.0 0.0 2.0 2.0 0.0 -308.0 10.0 2.0 4.0 9.0 9.0 9.0 3.0 3.0 7.0 0.0 10.0 3.0 8.0 8.0 1.0 4.0 0.0 1.0 5.0 8.0 0.0 10.0 5.0 2.0 0.0 10.0 1.0 7.0 0.0 10.0 1.0 3.0 0.0 7.0 7.0 0.0 9.0 10.0 2.0 4.0 8.0 6.0 9.0 10.0 0.0 1.0 2.0 2.0 2.0 5.0 4.0 5.0 3.0 10.0 3.0 6.0 2.0 3.0 9.0 1.0 4.0 4.0 4.0 
5.0 6.0 5.0 8.0 1.0 0.0 3.0 10.0 10.0 -396.0 0.0 8.0 5.0 1.0 2.0 10.0 7.0 3.0 9.0 8.0 6.0 8.0 10.0 10.0 7.0 0.0 10.0 5.0 7.0 9.0 7.0 6.0 6.0 10.0 2.0 10.0 0.0 10.0 5.0 5.0 5.0 3.0 7.0 5.0 9.0 1.0 10.0 3.0 8.0 9.0 2.0 4.0 6.0 1.0 6.0 0.0 10.0 7.0 0.0 9.0 9.0 5.0 4.0 6.0 1.0 8.0 3.0 7.0 2.0 9.0 2.0 1.0 
2.0 3.0 10.0 1.0 9.0 0.0 9.0 2.0 2.0 0.0 -354.0 4.0 0.0 2.0 5.0 8.0 3.0 9.0 8.0 10.0 1.0 10.0 9.0 0.0 9.0 5.0 8.0 3.0 9.0 4.0 8.0 9.0 2.0 1.0 7.0 9.0 4.0 9.0 0.0 6.0 9.0 8.0 4.0 1.0 7.0 0.0 0.0 3.0 9.0 1.0 7.0 8.0 2.0 2.0 8.0 1.0 4.0 6.0 2.0 6.0 10.0 8.0 4.0 10.0 2.0 0.0 9.0 2.0 4.0 1.0 8.0 8.0 
6.0 10.0 6.0 5.0 3.0 7.0 4.0 9.0 4.0 8.0 4.0 -370.0 9.0 8.0 9.0 1.0 6.0 1.0 3.0 9.0 1.0 6.0 8.0 4.0 7.0 5.0 10.0 9.0 0.0 1.0 1.0 1.0 5.0 8.0 5.0 10.0 0.0 3.0 5.0 1.0 10.0 5.0 9.0 9.0 10.0 6.0 7.0 2.0 3.0 6.0 5.0 9.0 5.0 4.0 10.0 10.0 0.0 5.0 7.0 0.0 10.0 1.0 1.0 1.0 7.0 0.0 8.0 0.0 0.0 5.0 9.0 4.0 
9.0 10.0 5.0 10.0 1.0 7.0 8.0 4.0 9.0 5.0 0.0 9.0 -379.0 2.0 10.0 1.0 6.0 0.0 4.0 9.0 9.0 6.0 3.0 8.0 9.0 3.0 4.0 8.0 1.0 0.0 0.0 4.0 1.0 9.0 0.0 1.0 2.0 8.0 4.0 5.0 4.0 6.0 3.0 7.0 2.0 1.0 7.0 0.0 1.0 8.0 4.0 8.0 8.0 9.0 8.0 9.0 1.0 9.0 7.0 9.0 2.0 8.0 4.0 10.0 0.0 9.0 9.0 3.0 7.0 5.0 10.0 7.0 
4.0 9.0 9.0 4.0 8.0 4.0 9.0 0.0 9.0 1.0 2.0 8.0 2.0 -352.0 2.0 5.0 5.0 1.0 1.0 7.0 2.0 0.0 4.0 1.0 7.0 9.0 8.0 9.0 9.0 6.0 1.0 8.0 7.0 10.0 10.0 3.0 6.0 0.0 5.0 2.0 3.0 0.0 8.0 6.0 6.0 1.0 4.0 0.0 7.0 6.0 0.0 1.0 2.0 6.0 7.0 8.0 1.0 9.0 2.0 9.0 8.0 4.0 10.0 0.0 9.0 9.0 8.0 5.0 1.0 0.0 8.0 7.0 
8.0 8.0 6.0 0.0 1.0 1.0 2.0 1.0 9.0 2.0 5.0 9.0 10.0 2.0 -323.0 1.0 6.0 0.0 7.0 4.0 2.0 3.0 7.0 8.0 3.0 2.0 0.0 3.0 2.0 3.0 3.0 1.0 9.0 3.0 10.0 7.0 5.0 2.0 8.0 8.0 9.0 0.0 10.0 2.0 3.0 7.0 4.0 0.0 0.0 1.0 10.0 9.0 7.0 6.0 1.0 7.0 8.0 2.0 2.0 1.0 8.0 3.0 6.0 1.0 9.0 1.0 10.0 8.0 9.0 1.0 6.0 1.0 
9.0 4.0 10.0 0.0 4.0 4.0 8.0 7.0 3.0 10.0 8.0 1.0 1.0 5.0 1.0 -345.0 0.0 6.0 2.0 3.0 0.0 9.0 7.0 6.0 5.0 10.0 2.0 7.0 0.0 6.0 9.0 1.0 1.0 0.0 2.0 0.0 0.0 9.0 7.0 4.0 3.0 2.0 3.0 4.0 10.0 3.0 0.0 9.0 6.0 6.0 10.0 3.0 2.0 9.0 9.0 4.0 1.0 6.0 10.0 9.0 1.0 8.0 10.0 4.0 8.0 4.0 5.0 6.0 0.0 2.0 9.0 8.0 
4.0 5.0 7.0 2.0 0.0 10.0 9.0 2.0 3.0 7.0 3.0 6.0 6.0 5.0 6.0 0.0 -314.0 9.0 4.0 4.0 5.0 5.0 3.0 4.0 8.0 4.0 10.0 4.0 0.0 6.0 10.0 2.0 2.0 1.0 10.0 0.0 4.0 10.0 4.0 2.0 8.0 6.0 5.0 5.0 1.0 6.0 9.0 0.0 6.0 2.0 9.0 2.0 1.0 0.0 3.0 6.0 7.0 9.0 4.0 4.0 6.0 0.0 2.0 1.0 0.0 7.0 10.0 3.0 3.0 0.0 2.0 1.0 
1.0 5.0 7.0 2.0 3.0 2.0 10.0 1.0 7.0 3.0 9.0 1.0 0.0 1.0 0.0 6.0 9.0 -333.0 2.0 6.0 9.0 2.0 10.0 7.0 4.0 5.0 0.0 4.0 6.0 10.0 1.0 6.0 3.0 5.0 4.0 4.0 0.0 2.0 8.0 1.0 1.0 9.0 5.0 5.0 0.0 0.0 1.0 9.0 9.0 7.0 5.0 8.0 4.0 4.0 1.0 1.0 6.0 4.0 6.0 5.0 6.0 9.0 9.0 4.0 9.0 9.0 2.0 7.0 4.0 9.0 5.0 4.0 
5.0 8.0 10.0 1.0 5.0 5.0 9.0 10.0 0.0 9.0 8.0 3.0 4.0 1.0 7.0 2.0 4.0 2.0 -371.0 6.0 9.0 1.0 6.0 3.0 9.0 1.0 7.0 1.0 2.0 7.0 5.0 2.0 2.0 9.0 7.0 7.0 10.0 3.0 5.0 7.0 10.0 1.0 10.0 4.0 0.0 10.0 1.0 10.0 7.0 2.0 8.0 8.0 9.0 1.0 4.0 6.0 10.0 5.0 5.0 2.0 10.0 6.0 5.0 7.0 10.0 1.0 7.0 1.0 2.0 7.0 0.0 0.0 
3.0 3.0 0.0 7.0 0.0 3.0 2.0 2.0 10.0 8.0 10.0 9.0 9.0 7.0 4.0 3.0 4.0 6.0 6.0 -359.0 8.0 9.0 8.0 7.0 3.0 3.0 6.0 10.0 5.0 5.0 2.0 8.0 0.0 10.0 9.0 1.0 3.0 0.0 5.0 2.0 3.0 1.0 9.0 0.0 2.0 2.0 5.0 10.0 9.0 8.0 7.0 10.0 1.0 1.0 3.0 3.0 10.0 3.0 10.0 5.0 5.0 9.0 2.0 4.0 3.0 0.0 4.0 4.0 0.0 7.0 10.0 9.0 
0.0 7.0 6.0 5.0 4.0 7.0 1.0 6.0 3.0 6.0 1.0 1.0 9.0 2.0 2.0 0.0 5.0 9.0 9.0 8.0 -356.0 0.0 8.0 8.0 0.0 9.0 5.0 8.0 8.0 0.0 1.0 9.0 10.0 7.0 9.0 4.0 6.0 6.0 7.0 5.0 5.0 10.0 5.0 9.0 9.0 1.0 2.0 10.0 5.0 4.0 7.0 9.0 8.0 2.0 5.0 1.0 8.0 8.0 2.0 7.0 0.0 5.0 2.0 2.0 5.0 7.0 6.0 2.0 1.0 0.0 6.0 2.0 
1.0 6.0 0.0 0.0 5.0 8.0 8.0 7.0 8.0 8.0 10.0 6.0 6.0 0.0 3.0 9.0 5.0 2.0 1.0 9.0 0.0 -334.0 4.0 8.0 5.0 0.0 7.0 2.0 0.0 7.0 0.0 6.0 8.0 9.0 10.0 3.0 7.0 7.0 2.0 0.0 7.0 3.0 1.0 2.0 7.0 0.0 1.0 3.0 3.0 9.0 1.0 10.0 4.0 6.0 6.0 5.0 5.0 0.0 5.0 4.0 8.0 10.0 8.0 6.0 7.0 0.0 6.0 3.0 1.0 4.0 6.0 6.0 
3.0 4.0 3.0 6.0 1.0 10.0 5.0 5.0 8.0 10.0 9.0 8.0 3.0 4.0 7.0 7.0 3.0 10.0 6.0 8.0 8.0 4.0 -383.0 6.0 9.0 4.0 3.0 2.0 7.0 9.0 1.0 5.0 6.0 0.0 9.0 8.0 4.0 0.0 5.0 10.0 10.0 2.0 8.0 9.0 3.0 6.0 9.0 6.0 1.0 0.0 1.0 6.0 1.0 0.0 2.0 1.0 3.0 5.0 3.0 1.0 7.0 3.0 6.0 9.0 9.0 6.0 9.0 8.0 7.0 10.0 4.0 8.0 
3.0 7.0 4.0 7.0 9.0 2.0 0.0 7.0 1.0 10.0 0.0 4.0 8.0 1.0 8.0 6.0 4.0 7.0 3.0 7.0 8.0 8.0 6.0 -369.0 10.0 10.0 5.0 8.0 6.0 6.0 5.0 5.0 10.0 8.0 0.0 1.0 10.0 3.0 0.0 4.0 2.0 8.0 9.0 7.0 5.0 0.0 3.0 10.0 8.0 5.0 8.0 7.0 4.0 2.0 3.0 9.0 10.0 5.0 0.0 1.0 9.0 7.0 10.0 0.0 4.0 3.0 10.0 2.0 6.0 0.0 0.0 1.0 
8.0 2.0 0.0 10.0 8.0 0.0 10.0 3.0 4.0 7.0 9.0 7.0 9.0 7.0 3.0 5.0 8.0 4.0 9.0 3.0 0.0 5.0 9.0 10.0 -354.0 4.0 0.0 1.0 8.0 10.0 2.0 4.0 3.0 10.0 0.0 8.0 10.0 4.0 9.0 4.0 2.0 2.0 8.0 1.0 6.0 5.0 0.0 9.0 8.0 9.0 3.0 8.0 6.0 9.0 2.0 1.0 4.0 1.0 6.0 7.0 3.0 10.0 3.0 3.0 0.0 4.0 10.0 3.0 4.0 0.0 0.0 0.0 
7.0 3.0 4.0 1.0 2.0 3.0 7.0 3.0 0.0 0.0 5.0 5.0 3.0 9.0 2.0 10.0 4.0 5.0 1.0 3.0 9.0 0.0 4.0 10.0 4.0 -293.0 2.0 5.0 6.0 4.0 8.0 0.0 3.0 1.0 3.0 4.0 8.0 0.0 7.0 7.0 3.0 5.0 6.0 1.0 9.0 5.0 7.0 0.0 7.0 9.0 10.0 0.0 5.0 0.0 2.0 2.0 0.0 5.0 3.0 0.0 6.0 0.0 1.0 2.0 6.0 6.0 2.0 1.0 9.0 4.0 9.0 6.0 
10.0 5.0 6.0 9.0 1.0 7.0 4.0 1.0 1.0 10.0 8.0 10.0 4.0 8.0 0.0 2.0 10.0 0.0 7.0 6.0 5.0 7.0 3.0 5.0 0.0 2.0 -358.0 0.0 10.0 7.0 10.0 8.0 5.0 2.0 1.0 3.0 4.0 1.0 6.0 2.0 0.0 10.0 7.0 7.0 9.0 2.0 8.0 8.0 5.0 9.0 2.0 10.0 6.0 1.0 4.0 7.0 3.0 8.0 9.0 4.0 7.0 2.0 6.0 7.0 7.0 1.0 4.0 4.0 2.0 8.0 1.0 0.0 
10.0 2.0 9.0 3.0 4.0 6.0 5.0 1.0 5.0 5.0 3.0 9.0 8.0 9.0 3.0 7.0 4.0 4.0 1.0 10.0 8.0 2.0 2.0 8.0 1.0 5.0 0.0 -354.0 2.0 4.0 2.0 4.0 9.0 4.0 2.0 4.0 5.0 10.0 4.0 8.0 3.0 3.0 3.0 4.0 2.0 2.0 2.0 8.0 6.0 5.0 2.0 4.0 5.0 6.0 5.0 5.0 6.0 10.0 8.0 2.0 9.0 1.0 7.0 10.0 7.0 2.0 8.0 1.0 8.0 10.0 8.0 0.0 
9.0 10.0 7.0 4.0 4.0 2.0 4.0 4.0 8.0 7.0 9.0 0.0 1.0 9.0 2.0 0.0 0.0 6.0 2.0 5.0 8.0 0.0 7.0 6.0 8.0 6.0 10.0 2.0 -338.0 5.0 2.0 0.0 1.0 9.0 1.0 2.0 0.0 3.0 5.0 9.0 4.0 8.0 5.0 8.0 3.0 4.0 0.0 7.0 2.0 7.0 1.0 0.0 8.0 9.0 4.0 0.0 3.0 5.0 10.0 5.0 8.0 0.0 8.0 8.0 5.0 7.0 5.0 0.0 6.0 4.0 8.0 9.0 
4.0 5.0 8.0 5.0 8.0 1.0 2.0 1.0 0.0 9.0 4.0 1.0 0.0 6.0 3.0 6.0 6.0 10.0 7.0 5.0 0.0 7.0 9.0 6.0 10.0 4.0 7.0 4.0 5.0 -334.0 5.0 9.0 0.0 1.0 8.0 6.0 10.0 0.0 4.0 10.0 5.0 1.0 5.0 3.0 6.0 3.0 7.0 8.0 2.0 0.0 1.0 0.0 4.0 2.0 8.0 7.0 3.0 4.0 6.0 6.0 3.0 4.0 9.0 3.0 10.0 1.0 4.0 1.0 8.0 0.0 6.0 8.0 
6.0 10.0 8.0 2.0 5.0 4.0 10.0 7.0 10.0 7.0 8.0 1.0 0.0 1.0 3.0 9.0 10.0 1.0 5.0 2.0 1.0 0.0 1.0 5.0 2.0 8.0 10.0 2.0 2.0 5.0 -408.0 1.0 10.0 6.0 10.0 10.0 1.0 10.0 5.0 4.0 9.0 6.0 9.0 3.0 0.0 3.0 10.0 10.0 6.0 6.0 10.0 9.0 10.0 7.0 2.0 5.0 8.0 9.0 10.0 8.0 9.0 6.0 9.0 0.0 7.0 7.0 2.0 0.0 8.0 7.0 4.0 7.0 
0.0 5.0 5.0 7.0 9.0 10.0 9.0 1.0 5.0 6.0 9.0 1.0 4.0 8.0 1.0 1.0 2.0 6.0 2.0 8.0 9.0 6.0 5.0 5.0 4.0 0.0 8.0 4.0 0.0 9.0 1.0 -303.0 9.0 9.0 5.0 2.0 5.0 4.0 3.0 7.0 6.0 4.0 2.0 0.0 1.0 9.0 3.0 2.0 2.0 3.0 0.0 2.0 6.0 2.0 0.0 0.0 1.0 0.0 8.0 9.0 3.0 0.0 0.0 9.0 8.0 9.0 7.0 8.0 2.0 2.0 1.0 0.0 
1.0 2.0 10.0 8.0 8.0 2.0 8.0 7.0 2.0 6.0 2.0 5.0 1.0 7.0 9.0 1.0 2.0 3.0 2.0 0.0 10.0 8.0 6.0 10.0 3.0 3.0 5.0 9.0 1.0 0.0 10.0 9.0 -333.0 2.0 5.0 5.0 1.0 0.0 7.0 10.0 9.0 3.0 3.0 5.0 0.0 5.0 3.0 1.0 6.0 9.0 7.0 3.0 7.0 5.0 0.0 5.0 5.0 1.0 9.0 7.0 5.0 6.0 9.0 8.0 9.0 1.0 1.0 1.0 4.0 5.0 1.0 0.0 
3.0 10.0 7.0 3.0 8.0 7.0 8.0 0.0 0.0 10.0 1.0 8.0 9.0 10.0 3.0 0.0 1.0 5.0 9.0 10.0 7.0 9.0 0.0 8.0 10.0 1.0 2.0 4.0 9.0 1.0 6.0 9.0 2.0 -364.0 7.0 7.0 1.0 9.0 0.0 6.0 7.0 1.0 8.0 3.0 7.0 6.0 7.0 10.0 8.0 8.0 6.0 3.0 10.0 1.0 8.0 9.0 1.0 2.0 4.0 2.0 6.0 3.0 6.0 1.0 0.0 3.0 9.0 0.0 6.0 4.0 2.0 3.0 
8.0 6.0 10.0 5.0 7.0 7.0 7.0 1.0 10.0 2.0 7.0 5.0 0.0 10.0 10.0 2.0 10.0 4.0 7.0 9.0 9.0 10.0 9.0 0.0 0.0 3.0 1.0 2.0 1.0 8.0 10.0 5.0 5.0 7.0 -359.0 8.0 1.0 1.0 7.0 4.0 10.0 9.0 0.0 7.0 1.0 4.0 7.0 1.0 4.0 0.0 4.0 1.0 10.0 0.0 1.0 5.0 6.0 6.0 1.0 6.0 4.0 8.0 8.0 8.0 5.0 1.0 7.0 2.0 9.0 0.0 3.0 3.0 
8.0 4.0 6.0 3.0 3.0 6.0 9.0 6.0 1.0 10.0 9.0 10.0 1.0 3.0 7.0 0.0 0.0 4.0 7.0 1.0 4.0 3.0 8.0 1.0 8.0 4.0 3.0 4.0 2.0 6.0 10.0 2.0 5.0 7.0 8.0 -336.0 9.0 10.0 3.0 9.0 1.0 5.0 6.0 0.0 2.0 0.0 3.0 3.0 5.0 1.0 0.0 4.0 5.0 2.0 9.0 9.0 1.0 8.0 3.0 6.0 8.0 4.0 0.0 1.0 5.0 3.0 6.0 10.0 8.0 3.0 8.0 3.0 
0.0 6.0 10.0 10.0 9.0 4.0 3.0 7.0 7.0 0.0 4.0 0.0 2.0 6.0 5.0 0.0 4.0 0.0 10.0 3.0 6.0 7.0 4.0 10.0 10.0 8.0 4.0 5.0 0.0 10.0 1.0 5.0 1.0 1.0 1.0 9.0 -360.0 1.0 6.0 5.0 9.0 3.0 4.0 1.0 9.0 6.0 6.0 3.0 6.0 9.0 3.0 10.0 10.0 3.0 5.0 4.0 6.0 6.0 8.0 9.0 7.0 1.0 6.0 0.0 1.0 9.0 7.0 10.0 9.0 1.0 0.0 5.0 
4.0 2.0 6.0 7.0 3.0 7.0 9.0 3.0 0.0 10.0 9.0 3.0 8.0 0.0 2.0 9.0 10.0 2.0 3.0 0.0 6.0 7.0 0.0 3.0 4.0 0.0 1.0 10.0 3.0 0.0 10.0 4.0 0.0 9.0 1.0 10.0 1.0 -318.0 10.0 3.0 10.0 4.0 4.0 4.0 5.0 7.0 8.0 10.0 10.0 6.0 2.0 0.0 7.0 2.0 0.0 1.0 1.0 3.0 5.0 7.0 4.0 2.0 6.0 7.0 6.0 1.0 7.0 0.0 3.0 0.0 6.0 1.0 
1.0 1.0 4.0 2.0 0.0 7.0 5.0 10.0 10.0 5.0 0.0 5.0 4.0 5.0 8.0 7.0 4.0 8.0 5.0 5.0 7.0 2.0 5.0 0.0 9.0 7.0 6.0 4.0 5.0 4.0 5.0 3.0 7.0 0.0 7.0 3.0 6.0 10.0 -344.0 10.0 7.0 5.0 3.0 8.0 6.0 8.0 0.0 0.0 3.0 4.0 8.0 9.0 3.0 5.0 2.0 10.0 5.0 6.0 5.0 10.0 2.0 10.0 4.0 0.0 5.0 3.0 1.0 0.0 3.0 5.0 5.0 3.0 
10.0 7.0 7.0 10.0 10.0 5.0 1.0 3.0 1.0 5.0 6.0 1.0 5.0 2.0 8.0 4.0 2.0 1.0 7.0 2.0 5.0 0.0 10.0 4.0 4.0 7.0 2.0 8.0 9.0 10.0 4.0 7.0 10.0 6.0 4.0 9.0 5.0 3.0 10.0 -350.0 7.0 9.0 10.0 3.0 7.0 1.0 2.0 6.0 0.0 2.0 1.0 1.0 6.0 4.0 0.0 8.0 2.0 5.0 7.0 8.0 8.0 2.0 0.0 6.0 3.0 5.0 3.0 6.0 4.0 3.0 5.0 2.0 
5.0 7.0 9.0 9.0 3.0 0.0 3.0 0.0 3.0 5.0 9.0 10.0 4.0 3.0 9.0 3.0 8.0 1.0 10.0 3.0 5.0 7.0 10.0 2.0 2.0 3.0 0.0 3.0 4.0 5.0 9.0 6.0 9.0 7.0 10.0 1.0 9.0 10.0 7.0 7.0 -391.0 2.0 10.0 2.0 3.0 10.0 7.0 9.0 10.0 9.0 9.0 10.0 2.0 9.0 3.0 10.0 5.0 7.0 4.0 0.0 3.0 5.0 5.0 6.0 1.0 3.0 1.0 3.0 5.0 3.0 5.0 10.0 
5.0 9.0 9.0 8.0 8.0 6.0 8.0 8.0 0.0 3.0 8.0 5.0 6.0 0.0 0.0 2.0 6.0 9.0 1.0 1.0 10.0 3.0 2.0 8.0 2.0 5.0 10.0 3.0 8.0 1.0 6.0 4.0 3.0 1.0 9.0 5.0 3.0 4.0 5.0 9.0 2.0 -350.0 3.0 7.0 0.0 10.0 5.0 5.0 0.0 6.0 7.0 1.0 1.0 2.0 6.0 2.0 10.0 4.0 2.0 4.0 7.0 7.0 5.0 6.0 6.0 10.0 8.0 6.0 3.0 2.0 6.0 4.0 
10.0 10.0 0.0 0.0 3.0 2.0 9.0 3.0 7.0 7.0 4.0 9.0 3.0 8.0 10.0 3.0 5.0 5.0 10.0 9.0 5.0 1.0 8.0 9.0 8.0 6.0 7.0 3.0 5.0 5.0 9.0 2.0 3.0 8.0 0.0 6.0 4.0 4.0 3.0 10.0 10.0 3.0 -398.0 4.0 10.0 10.0 10.0 1.0 2.0 4.0 0.0 1.0 9.0 0.0 8.0 2.0 3.0 10.0 0.0 8.0 8.0 10.0 8.0 2.0 8.0 9.0 1.0 9.0 1.0 7.0 7.0 10.0 
0.0 4.0 5.0 4.0 2.0 4.0 8.0 2.0 7.0 5.0 1.0 9.0 7.0 6.0 2.0 4.0 5.0 5.0 4.0 0.0 9.0 2.0 9.0 7.0 1.0 1.0 7.0 4.0 8.0 3.0 3.0 0.0 5.0 3.0 7.0 0.0 1.0 4.0 8.0 3.0 2.0 7.0 4.0 -357.0 1.0 0.0 2.0 1.0 10.0 10.0 10.0 10.0 9.0 10.0 2.0 9.0 9.0 4.0 10.0 10.0 9.0 10.0 5.0 3.0 5.0 4.0 10.0 3.0 6.0 4.0 4.0 5.0 
1.0 9.0 9.0 7.0 0.0 5.0 1.0 2.0 0.0 9.0 7.0 10.0 2.0 6.0 3.0 10.0 1.0 0.0 0.0 2.0 9.0 7.0 3.0 5.0 6.0 9.0 9.0 2.0 3.0 6.0 0.0 1.0 0.0 7.0 1.0 2.0 9.0 5.0 6.0 7.0 3.0 0.0 10.0 1.0 -340.0 5.0 4.0 4.0 1.0 8.0 9.0 9.0 5.0 1.0 7.0 10.0 8.0 6.0 3.0 2.0 8.0 10.0 5.0 2.0 8.0 3.0 4.0 1.0 6.0 4.0 10.0 2.0 
7.0 2.0 4.0 0.0 1.0 9.0 6.0 10.0 9.0 1.0 0.0 6.0 1.0 1.0 7.0 3.0 6.0 0.0 10.0 2.0 1.0 0.0 6.0 0.0 5.0 5.0 2.0 2.0 4.0 3.0 3.0 9.0 5.0 6.0 4.0 0.0 6.0 7.0 8.0 1.0 10.0 10.0 10.0 0.0 5.0 -311.0 9.0 1.0 10.0 5.0 0.0 6.0 10.0 8.0 5.0 0.0 7.0 3.0 4.0 1.0 0.0 1.0 7.0 1.0 2.0 9.0 2.0 6.0 5.0 1.0 1.0 10.0 
2.0 4.0 5.0 9.0 0.0 9.0 3.0 4.0 10.0 10.0 0.0 7.0 7.0 4.0 4.0 0.0 9.0 1.0 1.0 5.0 2.0 1.0 9.0 3.0 0.0 7.0 8.0 2.0 0.0 7.0 10.0 3.0 3.0 7.0 7.0 3.0 6.0 8.0 0.0 2.0 7.0 5.0 10.0 2.0 4.0 9.0 -325.0 2.0 10.0 4.0 5.0 5.0 4.0 0.0 4.0 0.0 8.0 5.0 8.0 0.0 5.0 6.0 5.0 5.0 3.0 5.0 6.0 9.0 0.0 3.0 4.0 0.0 
6.0 4.0 5.0 4.0 2.0 3.0 6.0 1.0 2.0 3.0 3.0 2.0 0.0 0.0 0.0 9.0 0.0 9.0 10.0 10.0 10.0 3.0 6.0 10.0 9.0 0.0 8.0 8.0 7.0 8.0 10.0 2.0 1.0 10.0 1.0 3.0 3.0 10.0 0.0 6.0 9.0 5.0 1.0 1.0 4.0 1.0 2.0 -356.0 2.0 4.0 0.0 9.0 2.0 4.0 1.0 10.0 10.0 9.0 7.0 9.0 7.0 2.0 7.0 4.0 10.0 10.0 5.0 3.0 9.0 10.0 4.0 1.0 
4.0 3.0 7.0 3.0 10.0 1.0 10.0 7.0 4.0 8.0 9.0 3.0 1.0 7.0 0.0 6.0 6.0 9.0 7.0 9.0 5.0 3.0 1.0 8.0 8.0 7.0 5.0 6.0 2.0 2.0 6.0 2.0 6.0 8.0 4.0 5.0 6.0 10.0 3.0 0.0 10.0 0.0 2.0 10.0 1.0 10.0 10.0 2.0 -384.0 1.0 5.0 5.0 5.0 9.0 10.0 10.0 5.0 9.0 4.0 5.0 10.0 7.0 4.0 10.0 3.0 1.0 0.0 4.0 4.0 5.0 5.0 7.0 
7.0 9.0 2.0 5.0 8.0 1.0 7.0 8.0 8.0 9.0 1.0 6.0 8.0 6.0 1.0 6.0 2.0 7.0 2.0 8.0 4.0 9.0 0.0 5.0 9.0 9.0 9.0 5.0 7.0 0.0 6.0 3.0 9.0 8.0 0.0 1.0 9.0 6.0 4.0 2.0 9.0 6.0 4.0 10.0 8.0 5.0 4.0 4.0 1.0 -382.0 8.0 6.0 5.0 5.0 4.0 10.0 3.0 5.0 0.0 6.0 6.0 0.0 4.0 6.0 4.0 7.0 5.0 9.0 0.0 6.0 8.0 8.0 
0.0 9.0 7.0 10.0 2.0 7.0 1.0 9.0 6.0 2.0 7.0 5.0 4.0 0.0 10.0 10.0 9.0 5.0 8.0 7.0 7.0 1.0 1.0 8.0 3.0 10.0 2.0 2.0 1.0 1.0 10.0 0.0 7.0 6.0 4.0 0.0 3.0 2.0 8.0 1.0 9.0 7.0 0.0 10.0 9.0 0.0 5.0 0.0 5.0 8.0 -353.0 0.0 8.0 3.0 7.0 6.0 3.0 9.0 6.0 5.0 5.0 7.0 6.0 4.0 1.0 0.0 10.0 1.0 2.0 9.0 3.0 10.0 
9.0 1.0 10.0 2.0 10.0 3.0 1.0 7.0 9.0 4.0 8.0 9.0 8.0 1.0 9.0 3.0 2.0 8.0 8.0 10.0 9.0 10.0 6.0 7.0 8.0 0.0 10.0 4.0 0.0 0.0 9.0 2.0 3.0 3.0 1.0 4.0 10.0 0.0 9.0 1.0 10.0 1.0 1.0 10.0 9.0 6.0 5.0 9.0 5.0 6.0 0.0 -383.0 5.0 10.0 1.0 7.0 2.0 9.0 2.0 2.0 9.0 10.0 2.0 3.0 7.0 6.0 2.0 8.0 6.0 1.0 8.0 3.0 
7.0 9.0 2.0 5.0 3.0 10.0 2.0 9.0 10.0 6.0 2.0 5.0 8.0 2.0 7.0 2.0 1.0 4.0 9.0 1.0 8.0 4.0 1.0 4.0 6.0 5.0 6.0 5.0 8.0 4.0 10.0 6.0 7.0 10.0 10.0 5.0 10.0 7.0 3.0 6.0 2.0 1.0 9.0 9.0 5.0 10.0 4.0 2.0 5.0 5.0 8.0 5.0 -409.0 10.0 8.0 9.0 1.0 7.0 1.0 8.0 9.0 8.0 5.0 4.0 10.0 2.0 5.0 10.0 2.0 5.0 10.0 1.0 
0.0 9.0 0.0 6.0 8.0 3.0 2.0 6.0 0.0 1.0 2.0 4.0 9.0 6.0 6.0 9.0 0.0 4.0 1.0 1.0 2.0 6.0 0.0 2.0 9.0 0.0 1.0 6.0 9.0 2.0 7.0 2.0 5.0 1.0 0.0 2.0 3.0 2.0 5.0 4.0 9.0 2.0 0.0 10.0 1.0 8.0 0.0 4.0 9.0 5.0 3.0 10.0 10.0 -311.0 1.0 6.0 5.0 4.0 7.0 7.0 5.0 5.0 5.0 5.0 1.0 7.0 8.0 10.0 6.0 3.0 5.0 5.0 
8.0 1.0 10.0 3.0 10.0 8.0 9.0 9.0 1.0 6.0 8.0 10.0 8.0 7.0 1.0 9.0 3.0 1.0 4.0 3.0 5.0 6.0 2.0 3.0 2.0 2.0 4.0 5.0 4.0 8.0 2.0 0.0 0.0 8.0 1.0 9.0 5.0 0.0 2.0 0.0 3.0 6.0 8.0 2.0 7.0 5.0 4.0 1.0 10.0 4.0 7.0 1.0 8.0 1.0 -337.0 3.0 6.0 3.0 7.0 9.0 5.0 1.0 3.0 5.0 9.0 2.0 7.0 6.0 0.0 0.0 10.0 7.0 
10.0 7.0 6.0 1.0 7.0 8.0 10.0 0.0 2.0 0.0 1.0 10.0 9.0 8.0 7.0 4.0 6.0 1.0 6.0 3.0 1.0 5.0 1.0 9.0 1.0 2.0 7.0 5.0 0.0 7.0 5.0 0.0 5.0 9.0 5.0 9.0 4.0 1.0 10.0 8.0 10.0 2.0 2.0 9.0 10.0 0.0 0.0 10.0 10.0 10.0 6.0 7.0 9.0 6.0 3.0 -356.0 2.0 6.0 7.0 3.0 9.0 1.0 6.0 4.0 2.0 5.0 5.0 1.0 0.0 4.0 1.0 6.0 
6.0 1.0 8.0 7.0 8.0 6.0 2.0 3.0 2.0 10.0 4.0 0.0 1.0 1.0 8.0 1.0 7.0 6.0 10.0 10.0 8.0 5.0 3.0 10.0 4.0 0.0 3.0 6.0 3.0 3.0 8.0 1.0 5.0 1.0 6.0 1.0 6.0 1.0 5.0 2.0 5.0 10.0 3.0 9.0 8.0 7.0 8.0 10.0 5.0 3.0 3.0 2.0 1.0 5.0 6.0 2.0 -336.0 3.0 7.0 7.0 2.0 4.0 0.0 7.0 6.0 1.0 3.0 6.0 7.0 5.0 3.0 6.0 
6.0 9.0 9.0 4.0 9.0 7.0 8.0 9.0 2.0 7.0 6.0 5.0 9.0 9.0 2.0 6.0 9.0 4.0 5.0 3.0 8.0 0.0 5.0 5.0 1.0 5.0 8.0 10.0 5.0 4.0 9.0 0.0 1.0 2.0 6.0 8.0 6.0 3.0 6.0 5.0 7.0 4.0 10.0 4.0 6.0 3.0 5.0 9.0 9.0 5.0 9.0 9.0 7.0 4.0 3.0 6.0 3.0 -391.0 10.0 6.0 1.0 2.0 1.0 6.0 1.0 4.0 3.0 9.0 8.0 10.0 2.0 0.0 
8.0 7.0 0.0 5.0 6.0 6.0 3.0 7.0 5.0 0.0 2.0 7.0 7.0 2.0 2.0 10.0 4.0 6.0 5.0 10.0 2.0 5.0 3.0 0.0 6.0 3.0 9.0 8.0 10.0 6.0 10.0 8.0 9.0 4.0 1.0 3.0 8.0 5.0 5.0 7.0 4.0 2.0 0.0 10.0 3.0 4.0 8.0 7.0 4.0 0.0 6.0 2.0 1.0 7.0 7.0 7.0 7.0 10.0 -383.0 9.0 7.0 3.0 1.0 10.0 5.0 4.0 3.0 6.0 8.0 4.0 10.0 10.0 
2.0 2.0 2.0 1.0 10.0 2.0 8.0 3.0 4.0 9.0 6.0 0.0 9.0 9.0 1.0 9.0 4.0 5.0 2.0 5.0 7.0 4.0 1.0 1.0 7.0 0.0 4.0 2.0 5.0 6.0 8.0 9.0 7.0 2.0 6.0 6.0 9.0 7.0 10.0 8.0 0.0 4.0 8.0 10.0 2.0 1.0 0.0 9.0 5.0 6.0 5.0 2.0 8.0 7.0 9.0 3.0 7.0 6.0 9.0 -375.0 8.0 5.0 9.0 6.0 10.0 6.0 6.0 7.0 4.0 5.0 2.0 4.0 
3.0 10.0 9.0 0.0 7.0 5.0 9.0 5.0 5.0 9.0 10.0 10.0 2.0 8.0 8.0 1.0 6.0 6.0 10.0 5.0 0.0 8.0 7.0 9.0 3.0 6.0 7.0 9.0 8.0 3.0 9.0 3.0 5.0 6.0 4.0 8.0 7.0 4.0 2.0 8.0 3.0 7.0 8.0 9.0 8.0 0.0 5.0 7.0 10.0 6.0 5.0 9.0 9.0 5.0 5.0 9.0 2.0 1.0 7.0 8.0 -425.0 6.0 0.0 2.0 2.0 9.0 0.0 5.0 10.0 9.0 6.0 9.0 
5.0 8.0 6.0 1.0 1.0 5.0 2.0 3.0 3.0 5.0 8.0 1.0 8.0 4.0 3.0 8.0 0.0 9.0 6.0 9.0 5.0 10.0 3.0 7.0 10.0 0.0 2.0 1.0 0.0 4.0 6.0 0.0 6.0 3.0 8.0 4.0 1.0 2.0 10.0 2.0 5.0 7.0 10.0 10.0 10.0 1.0 6.0 2.0 7.0 0.0 7.0 10.0 8.0 5.0 1.0 1.0 4.0 2.0 3.0 5.0 6.0 -325.0 4.0 10.0 2.0 2.0 2.0 1.0 9.0 3.0 0.0 3.0 
8.0 9.0 10.0 8.0 8.0 5.0 9.0 6.0 10.0 4.0 4.0 1.0 4.0 10.0 6.0 10.0 2.0 9.0 5.0 2.0 2.0 8.0 6.0 10.0 3.0 1.0 6.0 7.0 8.0 9.0 9.0 0.0 9.0 6.0 8.0 0.0 6.0 6.0 4.0 0.0 5.0 5.0 8.0 5.0 5.0 7.0 5.0 7.0 4.0 4.0 6.0 2.0 5.0 5.0 3.0 6.0 0.0 1.0 1.0 9.0 0.0 4.0 -400.0 7.0 9.0 8.0 7.0 6.0 10.0 6.0 9.0 3.0 
8.0 9.0 5.0 9.0 5.0 8.0 6.0 10.0 3.0 6.0 10.0 1.0 10.0 0.0 1.0 4.0 1.0 4.0 7.0 4.0 2.0 6.0 9.0 0.0 3.0 2.0 7.0 10.0 8.0 3.0 0.0 9.0 8.0 1.0 8.0 1.0 0.0 7.0 0.0 6.0 6.0 6.0 2.0 3.0 2.0 1.0 5.0 4.0 10.0 6.0 4.0 3.0 4.0 5.0 5.0 4.0 7.0 6.0 10.0 6.0 2.0 10.0 7.0 -354.0 6.0 4.0 6.0 2.0 4.0 8.0 1.0 4.0 
4.0 1.0 6.0 10.0 7.0 3.0 0.0 10.0 6.0 1.0 2.0 7.0 0.0 9.0 9.0 8.0 0.0 9.0 10.0 3.0 5.0 7.0 9.0 4.0 0.0 6.0 7.0 7.0 5.0 10.0 7.0 8.0 9.0 0.0 5.0 5.0 1.0 6.0 5.0 3.0 1.0 6.0 8.0 5.0 8.0 2.0 3.0 10.0 3.0 4.0 1.0 7.0 10.0 1.0 9.0 2.0 6.0 1.0 5.0 10.0 2.0 2.0 9.0 6.0 -362.0 4.0 2.0 3.0 6.0 2.0 5.0 5.0 
0.0 4.0 6.0 1.0 7.0 6.0 8.0 7.0 2.0 8.0 0.0 0.0 9.0 9.0 1.0 4.0 7.0 9.0 1.0 0.0 7.0 0.0 6.0 3.0 4.0 6.0 1.0 2.0 7.0 1.0 7.0 9.0 1.0 3.0 1.0 3.0 9.0 1.0 3.0 5.0 3.0 10.0 9.0 4.0 3.0 9.0 5.0 10.0 1.0 7.0 0.0 6.0 2.0 7.0 2.0 5.0 1.0 4.0 4.0 6.0 9.0 2.0 8.0 4.0 4.0 -318.0 8.0 5.0 0.0 5.0 5.0 2.0 
9.0 10.0 3.0 2.0 1.0 1.0 1.0 6.0 3.0 3.0 9.0 8.0 9.0 8.0 10.0 5.0 10.0 2.0 7.0 4.0 6.0 6.0 9.0 10.0 10.0 2.0 4.0 8.0 5.0 4.0 2.0 7.0 1.0 9.0 7.0 6.0 7.0 7.0 1.0 3.0 1.0 8.0 1.0 10.0 4.0 2.0 6.0 5.0 0.0 5.0 10.0 2.0 5.0 8.0 7.0 5.0 3.0 3.0 3.0 6.0 0.0 2.0 7.0 6.0 2.0 8.0 -373.0 9.0 7.0 2.0 5.0 6.0 
2.0 6.0 3.0 6.0 0.0 3.0 2.0 2.0 9.0 7.0 2.0 0.0 3.0 5.0 8.0 6.0 3.0 7.0 1.0 4.0 2.0 3.0 8.0 2.0 3.0 1.0 4.0 1.0 0.0 1.0 0.0 8.0 1.0 0.0 2.0 10.0 10.0 0.0 0.0 6.0 3.0 6.0 9.0 3.0 1.0 6.0 9.0 3.0 4.0 9.0 1.0 8.0 10.0 10.0 6.0 1.0 6.0 9.0 6.0 7.0 5.0 1.0 6.0 2.0 3.0 5.0 9.0 -297.0 0.0 4.0 4.0 0.0 
9.0 0.0 3.0 8.0 4.0 6.0 2.0 5.0 1.0 2.0 4.0 0.0 7.0 1.0 9.0 0.0 3.0 4.0 2.0 0.0 1.0 1.0 7.0 6.0 4.0 9.0 2.0 8.0 6.0 8.0 8.0 2.0 4.0 6.0 9.0 8.0 9.0 3.0 3.0 4.0 5.0 3.0 1.0 6.0 6.0 5.0 0.0 9.0 4.0 0.0 2.0 6.0 2.0 6.0 0.0 0.0 7.0 8.0 8.0 4.0 10.0 9.0 10.0 4.0 6.0 0.0 7.0 0.0 -326.0 4.0 7.0 9.0 
1.0 0.0 0.0 1.0 7.0 3.0 5.0 1.0 4.0 9.0 1.0 5.0 5.0 0.0 1.0 2.0 0.0 9.0 7.0 7.0 0.0 4.0 10.0 0.0 0.0 4.0 8.0 10.0 4.0 0.0 7.0 2.0 5.0 4.0 0.0 3.0 1.0 0.0 5.0 3.0 3.0 2.0 7.0 4.0 4.0 1.0 3.0 10.0 5.0 6.0 9.0 1.0 5.0 3.0 0.0 4.0 5.0 10.0 4.0 5.0 9.0 3.0 6.0 8.0 2.0 5.0 2.0 4.0 4.0 -282.0 10.0 0.0 
4.0 0.0 4.0 1.0 8.0 10.0 3.0 4.0 4.0 2.0 8.0 9.0 10.0 8.0 6.0 9.0 2.0 5.0 0.0 10.0 6.0 6.0 4.0 0.0 0.0 9.0 1.0 8.0 8.0 6.0 4.0 1.0 1.0 2.0 3.0 8.0 0.0 6.0 5.0 5.0 5.0 6.0 7.0 4.0 10.0 1.0 4.0 4.0 5.0 8.0 3.0 8.0 10.0 5.0 10.0 1.0 3.0 2.0 10.0 2.0 6.0 0.0 9.0 1.0 5.0 5.0 5.0 4.0 7.0 10.0 -358.0 8.0 
0.0 0.0 9.0 7.0 2.0 1.0 2.0 4.0 4.0 1.0 8.0 4.0 7.0 7.0 1.0 8.0 1.0 4.0 0.0 9.0 2.0 6.0 8.0 1.0 0.0 6.0 0.0 0.0 9.0 8.0 7.0 0.0 0.0 3.0 3.0 3.0 5.0 1.0 3.0 2.0 10.0 4.0 10.0 5.0 2.0 10.0 0.0 1.0 7.0 8.0 10.0 3.0 1.0 5.0 7.0 6.0 6.0 0.0 10.0 4.0 9.0 3.0 3.0 4.0 5.0 2.0 6.0 0.0 9.0 0.0 8.0 -304.0 

